c Reduced graph for r04 generated by Cyril Grelier
p edge 151 1406
e 1 2
e 1 13
e 1 20
e 1 21
e 1 28
e 1 43
e 1 55
e 1 56
e 1 63
e 1 65
e 1 74
e 1 81
e 1 96
e 1 97
e 1 117
e 1 145
e 1 146
e 1 149
e 2 9
e 2 13
e 2 31
e 2 44
e 2 46
e 2 48
e 2 56
e 2 60
e 2 65
e 2 81
e 2 97
e 2 99
e 2 117
e 2 120
e 2 146
e 2 149
e 3 6
e 3 15
e 3 21
e 3 32
e 3 39
e 3 58
e 3 67
e 3 68
e 3 81
e 3 85
e 3 91
e 3 106
e 3 107
e 3 128
e 3 130
e 3 132
e 3 136
e 3 137
e 3 138
e 3 139
e 3 140
e 4 13
e 4 22
e 4 34
e 4 67
e 4 73
e 4 89
e 4 92
e 4 98
e 4 101
e 4 109
e 4 121
e 4 135
e 4 142
e 4 148
e 5 28
e 5 37
e 5 40
e 5 41
e 5 49
e 5 57
e 5 62
e 5 65
e 5 68
e 5 70
e 5 86
e 5 99
e 5 110
e 5 118
e 5 119
e 5 129
e 5 141
e 5 143
e 5 144
e 5 147
e 6 15
e 6 21
e 6 35
e 6 38
e 6 39
e 6 58
e 6 68
e 6 75
e 6 79
e 6 83
e 6 85
e 6 91
e 6 113
e 6 131
e 6 132
e 6 133
e 6 137
e 6 139
e 6 149
e 7 8
e 7 11
e 7 12
e 7 17
e 7 49
e 7 50
e 7 55
e 7 56
e 7 60
e 7 69
e 7 76
e 7 77
e 7 84
e 7 89
e 7 94
e 7 111
e 7 116
e 7 126
e 7 134
e 7 136
e 7 139
e 8 11
e 8 12
e 8 16
e 8 24
e 8 49
e 8 56
e 8 75
e 8 76
e 8 78
e 8 89
e 8 94
e 8 109
e 8 112
e 8 120
e 8 125
e 8 126
e 8 130
e 8 139
e 8 143
e 9 26
e 9 30
e 9 31
e 9 36
e 9 44
e 9 46
e 9 48
e 9 60
e 9 63
e 9 82
e 9 83
e 9 95
e 9 99
e 9 120
e 9 126
e 9 127
e 9 129
e 10 19
e 10 27
e 10 36
e 10 47
e 10 50
e 10 53
e 10 71
e 10 73
e 10 85
e 10 86
e 10 87
e 10 90
e 10 94
e 10 102
e 10 107
e 10 113
e 10 118
e 10 125
e 11 12
e 11 34
e 11 48
e 11 49
e 11 53
e 11 56
e 11 66
e 11 76
e 11 89
e 11 94
e 11 103
e 11 126
e 11 128
e 11 139
e 11 145
e 11 147
e 11 151
e 12 49
e 12 51
e 12 52
e 12 56
e 12 59
e 12 76
e 12 89
e 12 94
e 12 108
e 12 114
e 12 121
e 12 126
e 12 131
e 12 139
e 12 141
e 12 150
e 13 22
e 13 34
e 13 56
e 13 65
e 13 81
e 13 97
e 13 98
e 13 109
e 13 117
e 13 121
e 13 135
e 13 146
e 13 149
e 14 15
e 14 18
e 14 23
e 14 27
e 14 40
e 14 42
e 14 45
e 14 47
e 14 59
e 14 61
e 14 74
e 14 79
e 14 88
e 14 116
e 14 117
e 14 123
e 14 127
e 14 138
e 14 142
e 15 21
e 15 23
e 15 39
e 15 40
e 15 45
e 15 47
e 15 58
e 15 59
e 15 61
e 15 68
e 15 85
e 15 91
e 15 116
e 15 117
e 15 127
e 15 132
e 15 137
e 15 139
e 15 142
e 16 24
e 16 51
e 16 57
e 16 75
e 16 77
e 16 78
e 16 95
e 16 101
e 16 105
e 16 109
e 16 112
e 16 120
e 16 125
e 16 130
e 16 137
e 16 143
e 17 24
e 17 50
e 17 55
e 17 60
e 17 64
e 17 66
e 17 69
e 17 77
e 17 82
e 17 84
e 17 91
e 17 111
e 17 114
e 17 116
e 17 122
e 17 134
e 17 136
e 18 27
e 18 37
e 18 42
e 18 52
e 18 69
e 18 71
e 18 72
e 18 74
e 18 79
e 18 88
e 18 100
e 18 123
e 18 138
e 19 25
e 19 27
e 19 29
e 19 36
e 19 41
e 19 43
e 19 46
e 19 50
e 19 53
e 19 73
e 19 76
e 19 85
e 19 90
e 19 93
e 19 98
e 19 105
e 19 118
e 19 125
e 19 133
e 19 140
e 20 21
e 20 23
e 20 28
e 20 33
e 20 35
e 20 43
e 20 55
e 20 63
e 20 74
e 20 80
e 20 96
e 20 106
e 20 122
e 20 124
e 20 144
e 20 145
e 21 28
e 21 39
e 21 43
e 21 55
e 21 58
e 21 63
e 21 68
e 21 74
e 21 85
e 21 91
e 21 96
e 21 132
e 21 137
e 21 139
e 21 145
e 22 34
e 22 44
e 22 61
e 22 98
e 22 100
e 22 104
e 22 109
e 22 115
e 22 119
e 22 121
e 22 135
e 23 33
e 23 35
e 23 40
e 23 45
e 23 47
e 23 59
e 23 61
e 23 80
e 23 106
e 23 116
e 23 117
e 23 122
e 23 124
e 23 127
e 23 142
e 23 144
e 24 64
e 24 66
e 24 75
e 24 78
e 24 82
e 24 91
e 24 109
e 24 112
e 24 114
e 24 120
e 24 122
e 24 125
e 24 130
e 24 143
e 25 29
e 25 30
e 25 39
e 25 41
e 25 42
e 25 43
e 25 46
e 25 62
e 25 76
e 25 80
e 25 87
e 25 92
e 25 93
e 25 98
e 25 104
e 25 105
e 25 133
e 25 134
e 25 140
e 26 30
e 26 33
e 26 36
e 26 54
e 26 58
e 26 63
e 26 70
e 26 78
e 26 82
e 26 83
e 26 84
e 26 88
e 26 93
e 26 95
e 26 97
e 26 102
e 26 103
e 26 108
e 26 126
e 26 127
e 26 129
e 27 36
e 27 42
e 27 50
e 27 53
e 27 73
e 27 74
e 27 79
e 27 85
e 27 88
e 27 90
e 27 118
e 27 123
e 27 125
e 27 138
e 28 37
e 28 40
e 28 43
e 28 49
e 28 55
e 28 57
e 28 62
e 28 63
e 28 70
e 28 74
e 28 96
e 28 99
e 28 118
e 28 145
e 29 41
e 29 43
e 29 46
e 29 76
e 29 93
e 29 98
e 29 105
e 29 111
e 29 112
e 29 115
e 29 123
e 29 124
e 29 132
e 29 133
e 29 140
e 29 146
e 29 148
e 29 150
e 29 151
e 30 36
e 30 39
e 30 42
e 30 62
e 30 63
e 30 80
e 30 82
e 30 83
e 30 87
e 30 92
e 30 95
e 30 104
e 30 126
e 30 127
e 30 129
e 30 134
e 31 32
e 31 38
e 31 44
e 31 45
e 31 46
e 31 48
e 31 54
e 31 60
e 31 64
e 31 72
e 31 90
e 31 96
e 31 99
e 31 110
e 31 120
e 31 135
e 32 38
e 32 45
e 32 54
e 32 64
e 32 67
e 32 72
e 32 81
e 32 90
e 32 96
e 32 106
e 32 107
e 32 110
e 32 128
e 32 130
e 32 135
e 32 136
e 32 138
e 32 140
e 33 35
e 33 54
e 33 58
e 33 70
e 33 78
e 33 80
e 33 84
e 33 88
e 33 93
e 33 97
e 33 102
e 33 103
e 33 106
e 33 108
e 33 122
e 33 124
e 33 144
e 34 48
e 34 53
e 34 66
e 34 98
e 34 103
e 34 109
e 34 121
e 34 128
e 34 135
e 34 145
e 34 147
e 34 151
e 35 38
e 35 75
e 35 79
e 35 80
e 35 83
e 35 106
e 35 113
e 35 122
e 35 124
e 35 131
e 35 133
e 35 144
e 35 149
e 36 50
e 36 53
e 36 63
e 36 73
e 36 82
e 36 83
e 36 85
e 36 90
e 36 95
e 36 118
e 36 125
e 36 126
e 36 127
e 36 129
e 37 40
e 37 49
e 37 52
e 37 57
e 37 62
e 37 69
e 37 70
e 37 71
e 37 72
e 37 99
e 37 100
e 37 118
e 38 45
e 38 54
e 38 64
e 38 72
e 38 75
e 38 79
e 38 83
e 38 90
e 38 96
e 38 110
e 38 113
e 38 131
e 38 133
e 38 135
e 38 149
e 39 42
e 39 58
e 39 62
e 39 68
e 39 80
e 39 85
e 39 87
e 39 91
e 39 92
e 39 104
e 39 132
e 39 134
e 39 137
e 39 139
e 40 45
e 40 47
e 40 49
e 40 57
e 40 59
e 40 61
e 40 62
e 40 70
e 40 99
e 40 116
e 40 117
e 40 118
e 40 127
e 40 142
e 41 43
e 41 46
e 41 65
e 41 68
e 41 76
e 41 86
e 41 93
e 41 98
e 41 105
e 41 110
e 41 119
e 41 129
e 41 133
e 41 140
e 41 141
e 41 143
e 41 144
e 41 147
e 42 62
e 42 74
e 42 79
e 42 80
e 42 87
e 42 88
e 42 92
e 42 104
e 42 123
e 42 134
e 42 138
e 43 46
e 43 55
e 43 63
e 43 74
e 43 76
e 43 93
e 43 96
e 43 98
e 43 105
e 43 133
e 43 140
e 43 145
e 44 46
e 44 48
e 44 60
e 44 61
e 44 99
e 44 100
e 44 104
e 44 115
e 44 119
e 44 120
e 45 47
e 45 54
e 45 59
e 45 61
e 45 64
e 45 72
e 45 90
e 45 96
e 45 110
e 45 116
e 45 117
e 45 127
e 45 135
e 45 142
e 46 48
e 46 60
e 46 76
e 46 93
e 46 98
e 46 99
e 46 105
e 46 120
e 46 133
e 46 140
e 47 59
e 47 61
e 47 71
e 47 86
e 47 87
e 47 94
e 47 102
e 47 107
e 47 113
e 47 116
e 47 117
e 47 127
e 47 142
e 48 53
e 48 60
e 48 66
e 48 99
e 48 103
e 48 120
e 48 128
e 48 145
e 48 147
e 48 151
e 49 56
e 49 57
e 49 62
e 49 70
e 49 76
e 49 89
e 49 94
e 49 99
e 49 118
e 49 126
e 49 139
e 50 53
e 50 55
e 50 60
e 50 69
e 50 73
e 50 77
e 50 84
e 50 85
e 50 90
e 50 111
e 50 116
e 50 118
e 50 125
e 50 134
e 50 136
e 51 52
e 51 57
e 51 59
e 51 77
e 51 95
e 51 101
e 51 105
e 51 108
e 51 114
e 51 121
e 51 131
e 51 137
e 51 141
e 51 150
e 52 59
e 52 69
e 52 71
e 52 72
e 52 100
e 52 108
e 52 114
e 52 121
e 52 131
e 52 141
e 52 150
e 53 66
e 53 73
e 53 85
e 53 90
e 53 103
e 53 118
e 53 125
e 53 128
e 53 145
e 53 147
e 53 151
e 54 58
e 54 64
e 54 70
e 54 72
e 54 78
e 54 84
e 54 88
e 54 90
e 54 93
e 54 96
e 54 97
e 54 102
e 54 103
e 54 108
e 54 110
e 54 135
e 55 60
e 55 63
e 55 69
e 55 74
e 55 77
e 55 84
e 55 96
e 55 111
e 55 116
e 55 134
e 55 136
e 55 145
e 56 65
e 56 76
e 56 81
e 56 89
e 56 94
e 56 97
e 56 117
e 56 126
e 56 139
e 56 146
e 56 149
e 57 62
e 57 70
e 57 77
e 57 95
e 57 99
e 57 101
e 57 105
e 57 118
e 57 137
e 58 68
e 58 70
e 58 78
e 58 84
e 58 85
e 58 88
e 58 91
e 58 93
e 58 97
e 58 102
e 58 103
e 58 108
e 58 132
e 58 137
e 58 139
e 59 61
e 59 108
e 59 114
e 59 116
e 59 117
e 59 121
e 59 127
e 59 131
e 59 141
e 59 142
e 59 150
e 60 69
e 60 77
e 60 84
e 60 99
e 60 111
e 60 116
e 60 120
e 60 134
e 60 136
e 61 100
e 61 104
e 61 115
e 61 116
e 61 117
e 61 119
e 61 127
e 61 142
e 62 70
e 62 80
e 62 87
e 62 92
e 62 99
e 62 104
e 62 118
e 62 134
e 63 74
e 63 82
e 63 83
e 63 95
e 63 96
e 63 126
e 63 127
e 63 129
e 63 145
e 64 66
e 64 72
e 64 82
e 64 90
e 64 91
e 64 96
e 64 110
e 64 114
e 64 122
e 64 135
e 65 68
e 65 81
e 65 86
e 65 97
e 65 110
e 65 117
e 65 119
e 65 129
e 65 141
e 65 143
e 65 144
e 65 146
e 65 147
e 65 149
e 66 82
e 66 91
e 66 103
e 66 114
e 66 122
e 66 128
e 66 145
e 66 147
e 66 151
e 67 73
e 67 81
e 67 89
e 67 92
e 67 101
e 67 106
e 67 107
e 67 128
e 67 130
e 67 136
e 67 138
e 67 140
e 67 142
e 67 148
e 68 85
e 68 86
e 68 91
e 68 110
e 68 119
e 68 129
e 68 132
e 68 137
e 68 139
e 68 141
e 68 143
e 68 144
e 68 147
e 69 71
e 69 72
e 69 77
e 69 84
e 69 100
e 69 111
e 69 116
e 69 134
e 69 136
e 70 78
e 70 84
e 70 88
e 70 93
e 70 97
e 70 99
e 70 102
e 70 103
e 70 108
e 70 118
e 71 72
e 71 86
e 71 87
e 71 94
e 71 100
e 71 102
e 71 107
e 71 113
e 72 90
e 72 96
e 72 100
e 72 110
e 72 135
e 73 85
e 73 89
e 73 90
e 73 92
e 73 101
e 73 118
e 73 125
e 73 142
e 73 148
e 74 79
e 74 88
e 74 96
e 74 123
e 74 138
e 74 145
e 75 78
e 75 79
e 75 83
e 75 109
e 75 112
e 75 113
e 75 120
e 75 125
e 75 130
e 75 131
e 75 133
e 75 143
e 75 149
e 76 89
e 76 93
e 76 94
e 76 98
e 76 105
e 76 126
e 76 133
e 76 139
e 76 140
e 77 84
e 77 95
e 77 101
e 77 105
e 77 111
e 77 116
e 77 134
e 77 136
e 77 137
e 78 84
e 78 88
e 78 93
e 78 97
e 78 102
e 78 103
e 78 108
e 78 109
e 78 112
e 78 120
e 78 125
e 78 130
e 78 143
e 79 83
e 79 88
e 79 113
e 79 123
e 79 131
e 79 133
e 79 138
e 79 149
e 80 87
e 80 92
e 80 104
e 80 106
e 80 122
e 80 124
e 80 134
e 80 144
e 81 97
e 81 106
e 81 107
e 81 117
e 81 128
e 81 130
e 81 136
e 81 138
e 81 140
e 81 146
e 81 149
e 82 83
e 82 91
e 82 95
e 82 114
e 82 122
e 82 126
e 82 127
e 82 129
e 83 95
e 83 113
e 83 126
e 83 127
e 83 129
e 83 131
e 83 133
e 83 149
e 84 88
e 84 93
e 84 97
e 84 102
e 84 103
e 84 108
e 84 111
e 84 116
e 84 134
e 84 136
e 85 90
e 85 91
e 85 118
e 85 125
e 85 132
e 85 137
e 85 139
e 86 87
e 86 94
e 86 102
e 86 107
e 86 110
e 86 113
e 86 119
e 86 129
e 86 141
e 86 143
e 86 144
e 86 147
e 87 92
e 87 94
e 87 102
e 87 104
e 87 107
e 87 113
e 87 134
e 88 93
e 88 97
e 88 102
e 88 103
e 88 108
e 88 123
e 88 138
e 89 92
e 89 94
e 89 101
e 89 126
e 89 139
e 89 142
e 89 148
e 90 96
e 90 110
e 90 118
e 90 125
e 90 135
e 91 114
e 91 122
e 91 132
e 91 137
e 91 139
e 92 101
e 92 104
e 92 134
e 92 142
e 92 148
e 93 97
e 93 98
e 93 102
e 93 103
e 93 105
e 93 108
e 93 133
e 93 140
e 94 102
e 94 107
e 94 113
e 94 126
e 94 139
e 95 101
e 95 105
e 95 126
e 95 127
e 95 129
e 95 137
e 96 110
e 96 135
e 96 145
e 97 102
e 97 103
e 97 108
e 97 117
e 97 146
e 97 149
e 98 105
e 98 109
e 98 121
e 98 133
e 98 135
e 98 140
e 99 118
e 99 120
e 100 104
e 100 115
e 100 119
e 101 105
e 101 137
e 101 142
e 101 148
e 102 103
e 102 107
e 102 108
e 102 113
e 103 108
e 103 128
e 103 145
e 103 147
e 103 151
e 104 115
e 104 119
e 104 134
e 105 133
e 105 137
e 105 140
e 106 107
e 106 122
e 106 124
e 106 128
e 106 130
e 106 136
e 106 138
e 106 140
e 106 144
e 107 113
e 107 128
e 107 130
e 107 136
e 107 138
e 107 140
e 108 114
e 108 121
e 108 131
e 108 141
e 108 150
e 109 112
e 109 120
e 109 121
e 109 125
e 109 130
e 109 135
e 109 143
e 110 119
e 110 129
e 110 135
e 110 141
e 110 143
e 110 144
e 110 147
e 111 112
e 111 115
e 111 116
e 111 123
e 111 124
e 111 132
e 111 134
e 111 136
e 111 146
e 111 148
e 111 150
e 111 151
e 112 115
e 112 120
e 112 123
e 112 124
e 112 125
e 112 130
e 112 132
e 112 143
e 112 146
e 112 148
e 112 150
e 112 151
e 113 131
e 113 133
e 113 149
e 114 121
e 114 122
e 114 131
e 114 141
e 114 150
e 115 119
e 115 123
e 115 124
e 115 132
e 115 146
e 115 148
e 115 150
e 115 151
e 116 117
e 116 127
e 116 134
e 116 136
e 116 142
e 117 127
e 117 142
e 117 146
e 117 149
e 118 125
e 119 129
e 119 141
e 119 143
e 119 144
e 119 147
e 120 125
e 120 130
e 120 143
e 121 131
e 121 135
e 121 141
e 121 150
e 122 124
e 122 144
e 123 124
e 123 132
e 123 138
e 123 146
e 123 148
e 123 150
e 123 151
e 124 132
e 124 144
e 124 146
e 124 148
e 124 150
e 124 151
e 125 130
e 125 143
e 126 127
e 126 129
e 126 139
e 127 129
e 127 142
e 128 130
e 128 136
e 128 138
e 128 140
e 128 145
e 128 147
e 128 151
e 129 141
e 129 143
e 129 144
e 129 147
e 130 136
e 130 138
e 130 140
e 130 143
e 131 133
e 131 141
e 131 149
e 131 150
e 132 137
e 132 139
e 132 146
e 132 148
e 132 150
e 132 151
e 133 140
e 133 149
e 134 136
e 136 138
e 136 140
e 137 139
e 138 140
e 141 143
e 141 144
e 141 147
e 141 150
e 142 148
e 143 144
e 143 147
e 144 147
e 145 147
e 145 151
e 146 148
e 146 149
e 146 150
e 146 151
e 147 151
e 148 150
e 148 151
e 150 151
